param N := 4;
param NLINKS := 12; #N*(N-1);
param MSTART := 0;

param: LINKS : capacity_P cost =
		[1,2]		1    	4
		[1,3] 		1		2
		[1,4]		1		3
		[2,1]		1    	1
		[2,3] 		1		2
		[2,4]		1		3
		[3,1]		1    	1
		[3,2] 		1		2
		[3,4]		1		5
		[4,1]		1    	4
		[4,2] 		1		6
		[4,3]		1		2;
		
param gamma := 

		0	0
		1	1
		2	1
		3	1
		4	2
		5	2
		6	3
		7	3
		8	4
		9	4
		10	5
		11	5
		12	6;
